c graph colorability of graph:
c random_regular_graph(5, 98).
c
c Generated with `cnfgen`
c (C) 2012-2016 Massimo Lauria <lauria.massimo@gmail.com>
c https://massimolauria.github.io/cnfgen
c
p cnf 294 1127
1 2 3 0
-1 -2 0
-1 -3 0
-2 -3 0
4 5 6 0
-4 -5 0
-4 -6 0
-5 -6 0
7 8 9 0
-7 -8 0
-7 -9 0
-8 -9 0
10 11 12 0
-10 -11 0
-10 -12 0
-11 -12 0
13 14 15 0
-13 -14 0
-13 -15 0
-14 -15 0
16 17 18 0
-16 -17 0
-16 -18 0
-17 -18 0
19 20 21 0
-19 -20 0
-19 -21 0
-20 -21 0
22 23 24 0
-22 -23 0
-22 -24 0
-23 -24 0
25 26 27 0
-25 -26 0
-25 -27 0
-26 -27 0
28 29 30 0
-28 -29 0
-28 -30 0
-29 -30 0
31 32 33 0
-31 -32 0
-31 -33 0
-32 -33 0
34 35 36 0
-34 -35 0
-34 -36 0
-35 -36 0
37 38 39 0
-37 -38 0
-37 -39 0
-38 -39 0
40 41 42 0
-40 -41 0
-40 -42 0
-41 -42 0
43 44 45 0
-43 -44 0
-43 -45 0
-44 -45 0
46 47 48 0
-46 -47 0
-46 -48 0
-47 -48 0
49 50 51 0
-49 -50 0
-49 -51 0
-50 -51 0
52 53 54 0
-52 -53 0
-52 -54 0
-53 -54 0
55 56 57 0
-55 -56 0
-55 -57 0
-56 -57 0
58 59 60 0
-58 -59 0
-58 -60 0
-59 -60 0
61 62 63 0
-61 -62 0
-61 -63 0
-62 -63 0
64 65 66 0
-64 -65 0
-64 -66 0
-65 -66 0
67 68 69 0
-67 -68 0
-67 -69 0
-68 -69 0
70 71 72 0
-70 -71 0
-70 -72 0
-71 -72 0
73 74 75 0
-73 -74 0
-73 -75 0
-74 -75 0
76 77 78 0
-76 -77 0
-76 -78 0
-77 -78 0
79 80 81 0
-79 -80 0
-79 -81 0
-80 -81 0
82 83 84 0
-82 -83 0
-82 -84 0
-83 -84 0
85 86 87 0
-85 -86 0
-85 -87 0
-86 -87 0
88 89 90 0
-88 -89 0
-88 -90 0
-89 -90 0
91 92 93 0
-91 -92 0
-91 -93 0
-92 -93 0
94 95 96 0
-94 -95 0
-94 -96 0
-95 -96 0
97 98 99 0
-97 -98 0
-97 -99 0
-98 -99 0
100 101 102 0
-100 -101 0
-100 -102 0
-101 -102 0
103 104 105 0
-103 -104 0
-103 -105 0
-104 -105 0
106 107 108 0
-106 -107 0
-106 -108 0
-107 -108 0
109 110 111 0
-109 -110 0
-109 -111 0
-110 -111 0
112 113 114 0
-112 -113 0
-112 -114 0
-113 -114 0
115 116 117 0
-115 -116 0
-115 -117 0
-116 -117 0
118 119 120 0
-118 -119 0
-118 -120 0
-119 -120 0
121 122 123 0
-121 -122 0
-121 -123 0
-122 -123 0
124 125 126 0
-124 -125 0
-124 -126 0
-125 -126 0
127 128 129 0
-127 -128 0
-127 -129 0
-128 -129 0
130 131 132 0
-130 -131 0
-130 -132 0
-131 -132 0
133 134 135 0
-133 -134 0
-133 -135 0
-134 -135 0
136 137 138 0
-136 -137 0
-136 -138 0
-137 -138 0
139 140 141 0
-139 -140 0
-139 -141 0
-140 -141 0
142 143 144 0
-142 -143 0
-142 -144 0
-143 -144 0
145 146 147 0
-145 -146 0
-145 -147 0
-146 -147 0
148 149 150 0
-148 -149 0
-148 -150 0
-149 -150 0
151 152 153 0
-151 -152 0
-151 -153 0
-152 -153 0
154 155 156 0
-154 -155 0
-154 -156 0
-155 -156 0
157 158 159 0
-157 -158 0
-157 -159 0
-158 -159 0
160 161 162 0
-160 -161 0
-160 -162 0
-161 -162 0
163 164 165 0
-163 -164 0
-163 -165 0
-164 -165 0
166 167 168 0
-166 -167 0
-166 -168 0
-167 -168 0
169 170 171 0
-169 -170 0
-169 -171 0
-170 -171 0
172 173 174 0
-172 -173 0
-172 -174 0
-173 -174 0
175 176 177 0
-175 -176 0
-175 -177 0
-176 -177 0
178 179 180 0
-178 -179 0
-178 -180 0
-179 -180 0
181 182 183 0
-181 -182 0
-181 -183 0
-182 -183 0
184 185 186 0
-184 -185 0
-184 -186 0
-185 -186 0
187 188 189 0
-187 -188 0
-187 -189 0
-188 -189 0
190 191 192 0
-190 -191 0
-190 -192 0
-191 -192 0
193 194 195 0
-193 -194 0
-193 -195 0
-194 -195 0
196 197 198 0
-196 -197 0
-196 -198 0
-197 -198 0
199 200 201 0
-199 -200 0
-199 -201 0
-200 -201 0
202 203 204 0
-202 -203 0
-202 -204 0
-203 -204 0
205 206 207 0
-205 -206 0
-205 -207 0
-206 -207 0
208 209 210 0
-208 -209 0
-208 -210 0
-209 -210 0
211 212 213 0
-211 -212 0
-211 -213 0
-212 -213 0
214 215 216 0
-214 -215 0
-214 -216 0
-215 -216 0
217 218 219 0
-217 -218 0
-217 -219 0
-218 -219 0
220 221 222 0
-220 -221 0
-220 -222 0
-221 -222 0
223 224 225 0
-223 -224 0
-223 -225 0
-224 -225 0
226 227 228 0
-226 -227 0
-226 -228 0
-227 -228 0
229 230 231 0
-229 -230 0
-229 -231 0
-230 -231 0
232 233 234 0
-232 -233 0
-232 -234 0
-233 -234 0
235 236 237 0
-235 -236 0
-235 -237 0
-236 -237 0
238 239 240 0
-238 -239 0
-238 -240 0
-239 -240 0
241 242 243 0
-241 -242 0
-241 -243 0
-242 -243 0
244 245 246 0
-244 -245 0
-244 -246 0
-245 -246 0
247 248 249 0
-247 -248 0
-247 -249 0
-248 -249 0
250 251 252 0
-250 -251 0
-250 -252 0
-251 -252 0
253 254 255 0
-253 -254 0
-253 -255 0
-254 -255 0
256 257 258 0
-256 -257 0
-256 -258 0
-257 -258 0
259 260 261 0
-259 -260 0
-259 -261 0
-260 -261 0
262 263 264 0
-262 -263 0
-262 -264 0
-263 -264 0
265 266 267 0
-265 -266 0
-265 -267 0
-266 -267 0
268 269 270 0
-268 -269 0
-268 -270 0
-269 -270 0
271 272 273 0
-271 -272 0
-271 -273 0
-272 -273 0
274 275 276 0
-274 -275 0
-274 -276 0
-275 -276 0
277 278 279 0
-277 -278 0
-277 -279 0
-278 -279 0
280 281 282 0
-280 -281 0
-280 -282 0
-281 -282 0
283 284 285 0
-283 -284 0
-283 -285 0
-284 -285 0
286 287 288 0
-286 -287 0
-286 -288 0
-287 -288 0
289 290 291 0
-289 -290 0
-289 -291 0
-290 -291 0
292 293 294 0
-292 -293 0
-292 -294 0
-293 -294 0
-1 -28 0
-2 -29 0
-3 -30 0
-1 -58 0
-2 -59 0
-3 -60 0
-1 -100 0
-2 -101 0
-3 -102 0
-1 -199 0
-2 -200 0
-3 -201 0
-1 -289 0
-2 -290 0
-3 -291 0
-4 -19 0
-5 -20 0
-6 -21 0
-4 -88 0
-5 -89 0
-6 -90 0
-4 -160 0
-5 -161 0
-6 -162 0
-4 -184 0
-5 -185 0
-6 -186 0
-4 -268 0
-5 -269 0
-6 -270 0
-7 -130 0
-8 -131 0
-9 -132 0
-7 -136 0
-8 -137 0
-9 -138 0
-7 -157 0
-8 -158 0
-9 -159 0
-7 -190 0
-8 -191 0
-9 -192 0
-7 -229 0
-8 -230 0
-9 -231 0
-10 -79 0
-11 -80 0
-12 -81 0
-10 -85 0
-11 -86 0
-12 -87 0
-10 -127 0
-11 -128 0
-12 -129 0
-10 -238 0
-11 -239 0
-12 -240 0
-10 -286 0
-11 -287 0
-12 -288 0
-13 -34 0
-14 -35 0
-15 -36 0
-13 -55 0
-14 -56 0
-15 -57 0
-13 -100 0
-14 -101 0
-15 -102 0
-13 -250 0
-14 -251 0
-15 -252 0
-13 -265 0
-14 -266 0
-15 -267 0
-16 -19 0
-17 -20 0
-18 -21 0
-16 -46 0
-17 -47 0
-18 -48 0
-16 -94 0
-17 -95 0
-18 -96 0
-16 -169 0
-17 -170 0
-18 -171 0
-16 -244 0
-17 -245 0
-18 -246 0
-19 -133 0
-20 -134 0
-21 -135 0
-19 -157 0
-20 -158 0
-21 -159 0
-19 -184 0
-20 -185 0
-21 -186 0
-22 -106 0
-23 -107 0
-24 -108 0
-22 -142 0
-23 -143 0
-24 -144 0
-22 -148 0
-23 -149 0
-24 -150 0
-22 -220 0
-23 -221 0
-24 -222 0
-22 -277 0
-23 -278 0
-24 -279 0
-25 -121 0
-26 -122 0
-27 -123 0
-25 -124 0
-26 -125 0
-27 -126 0
-25 -205 0
-26 -206 0
-27 -207 0
-25 -214 0
-26 -215 0
-27 -216 0
-25 -229 0
-26 -230 0
-27 -231 0
-28 -37 0
-29 -38 0
-30 -39 0
-28 -55 0
-29 -56 0
-30 -57 0
-28 -238 0
-29 -239 0
-30 -240 0
-28 -262 0
-29 -263 0
-30 -264 0
-31 -64 0
-32 -65 0
-33 -66 0
-31 -73 0
-32 -74 0
-33 -75 0
-31 -82 0
-32 -83 0
-33 -84 0
-31 -163 0
-32 -164 0
-33 -165 0
-31 -208 0
-32 -209 0
-33 -210 0
-34 -55 0
-35 -56 0
-36 -57 0
-34 -64 0
-35 -65 0
-36 -66 0
-34 -67 0
-35 -68 0
-36 -69 0
-34 -76 0
-35 -77 0
-36 -78 0
-37 -73 0
-38 -74 0
-39 -75 0
-37 -79 0
-38 -80 0
-39 -81 0
-37 -169 0
-38 -170 0
-39 -171 0
-37 -256 0
-38 -257 0
-39 -258 0
-40 -73 0
-41 -74 0
-42 -75 0
-40 -79 0
-41 -80 0
-42 -81 0
-40 -154 0
-41 -155 0
-42 -156 0
-40 -202 0
-41 -203 0
-42 -204 0
-40 -241 0
-41 -242 0
-42 -243 0
-43 -130 0
-44 -131 0
-45 -132 0
-43 -160 0
-44 -161 0
-45 -162 0
-43 -226 0
-44 -227 0
-45 -228 0
-43 -253 0
-44 -254 0
-45 -255 0
-43 -283 0
-44 -284 0
-45 -285 0
-46 -112 0
-47 -113 0
-48 -114 0
-46 -127 0
-47 -128 0
-48 -129 0
-46 -199 0
-47 -200 0
-48 -201 0
-46 -268 0
-47 -269 0
-48 -270 0
-49 -214 0
-50 -215 0
-51 -216 0
-49 -223 0
-50 -224 0
-51 -225 0
-49 -232 0
-50 -233 0
-51 -234 0
-49 -262 0
-50 -263 0
-51 -264 0
-49 -271 0
-50 -272 0
-51 -273 0
-52 -118 0
-53 -119 0
-54 -120 0
-52 -136 0
-53 -137 0
-54 -138 0
-52 -205 0
-53 -206 0
-54 -207 0
-52 -271 0
-53 -272 0
-54 -273 0
-52 -289 0
-53 -290 0
-54 -291 0
-55 -151 0
-56 -152 0
-57 -153 0
-55 -175 0
-56 -176 0
-57 -177 0
-58 -109 0
-59 -110 0
-60 -111 0
-58 -169 0
-59 -170 0
-60 -171 0
-58 -241 0
-59 -242 0
-60 -243 0
-58 -259 0
-59 -260 0
-60 -261 0
-61 -100 0
-62 -101 0
-63 -102 0
-61 -124 0
-62 -125 0
-63 -126 0
-61 -172 0
-62 -173 0
-63 -174 0
-61 -190 0
-62 -191 0
-63 -192 0
-61 -229 0
-62 -230 0
-63 -231 0
-64 -181 0
-65 -182 0
-66 -183 0
-64 -199 0
-65 -200 0
-66 -201 0
-64 -202 0
-65 -203 0
-66 -204 0
-67 -148 0
-68 -149 0
-69 -150 0
-67 -151 0
-68 -152 0
-69 -153 0
-67 -172 0
-68 -173 0
-69 -174 0
-67 -181 0
-68 -182 0
-69 -183 0
-70 -124 0
-71 -125 0
-72 -126 0
-70 -217 0
-71 -218 0
-72 -219 0
-70 -232 0
-71 -233 0
-72 -234 0
-70 -265 0
-71 -266 0
-72 -267 0
-70 -280 0
-71 -281 0
-72 -282 0
-73 -91 0
-74 -92 0
-75 -93 0
-73 -211 0
-74 -212 0
-75 -213 0
-76 -88 0
-77 -89 0
-78 -90 0
-76 -121 0
-77 -122 0
-78 -123 0
-76 -271 0
-77 -272 0
-78 -273 0
-76 -286 0
-77 -287 0
-78 -288 0
-79 -208 0
-80 -209 0
-81 -210 0
-79 -289 0
-80 -290 0
-81 -291 0
-82 -97 0
-83 -98 0
-84 -99 0
-82 -118 0
-83 -119 0
-84 -120 0
-82 -136 0
-83 -137 0
-84 -138 0
-82 -259 0
-83 -260 0
-84 -261 0
-85 -94 0
-86 -95 0
-87 -96 0
-85 -133 0
-86 -134 0
-87 -135 0
-85 -220 0
-86 -221 0
-87 -222 0
-85 -250 0
-86 -251 0
-87 -252 0
-88 -112 0
-89 -113 0
-90 -114 0
-88 -172 0
-89 -173 0
-90 -174 0
-88 -250 0
-89 -251 0
-90 -252 0
-91 -130 0
-92 -131 0
-93 -132 0
-91 -211 0
-92 -212 0
-93 -213 0
-91 -274 0
-92 -275 0
-93 -276 0
-91 -280 0
-92 -281 0
-93 -282 0
-94 -103 0
-95 -104 0
-96 -105 0
-94 -112 0
-95 -113 0
-96 -114 0
-94 -292 0
-95 -293 0
-96 -294 0
-97 -157 0
-98 -158 0
-99 -159 0
-97 -232 0
-98 -233 0
-99 -234 0
-97 -256 0
-98 -257 0
-99 -258 0
-97 -265 0
-98 -266 0
-99 -267 0
-100 -268 0
-101 -269 0
-102 -270 0
-100 -292 0
-101 -293 0
-102 -294 0
-103 -106 0
-104 -107 0
-105 -108 0
-103 -115 0
-104 -116 0
-105 -117 0
-103 -232 0
-104 -233 0
-105 -234 0
-103 -247 0
-104 -248 0
-105 -249 0
-106 -184 0
-107 -185 0
-108 -186 0
-106 -256 0
-107 -257 0
-108 -258 0
-106 -265 0
-107 -266 0
-108 -267 0
-109 -142 0
-110 -143 0
-111 -144 0
-109 -160 0
-110 -161 0
-111 -162 0
-109 -163 0
-110 -164 0
-111 -165 0
-109 -208 0
-110 -209 0
-111 -210 0
-112 -223 0
-113 -224 0
-114 -225 0
-112 -229 0
-113 -230 0
-114 -231 0
-115 -190 0
-116 -191 0
-117 -192 0
-115 -202 0
-116 -203 0
-117 -204 0
-115 -238 0
-116 -239 0
-117 -240 0
-115 -253 0
-116 -254 0
-117 -255 0
-118 -154 0
-119 -155 0
-120 -156 0
-118 -196 0
-119 -197 0
-120 -198 0
-118 -265 0
-119 -266 0
-120 -267 0
-121 -139 0
-122 -140 0
-123 -141 0
-121 -163 0
-122 -164 0
-123 -165 0
-121 -196 0
-122 -197 0
-123 -198 0
-124 -133 0
-125 -134 0
-126 -135 0
-124 -157 0
-125 -158 0
-126 -159 0
-127 -217 0
-128 -218 0
-129 -219 0
-127 -262 0
-128 -263 0
-129 -264 0
-127 -292 0
-128 -293 0
-129 -294 0
-130 -214 0
-131 -215 0
-132 -216 0
-130 -268 0
-131 -269 0
-132 -270 0
-133 -166 0
-134 -167 0
-135 -168 0
-133 -229 0
-134 -230 0
-135 -231 0
-136 -175 0
-137 -176 0
-138 -177 0
-136 -241 0
-137 -242 0
-138 -243 0
-139 -151 0
-140 -152 0
-141 -153 0
-139 -217 0
-140 -218 0
-141 -219 0
-139 -277 0
-140 -278 0
-141 -279 0
-139 -292 0
-140 -293 0
-141 -294 0
-142 -178 0
-143 -179 0
-144 -180 0
-142 -253 0
-143 -254 0
-144 -255 0
-142 -256 0
-143 -257 0
-144 -258 0
-145 -148 0
-146 -149 0
-147 -150 0
-145 -205 0
-146 -206 0
-147 -207 0
-145 -214 0
-146 -215 0
-147 -216 0
-145 -253 0
-146 -254 0
-147 -255 0
-145 -277 0
-146 -278 0
-147 -279 0
-148 -196 0
-149 -197 0
-150 -198 0
-148 -232 0
-149 -233 0
-150 -234 0
-151 -175 0
-152 -176 0
-153 -177 0
-151 -286 0
-152 -287 0
-153 -288 0
-154 -244 0
-155 -245 0
-156 -246 0
-154 -268 0
-155 -269 0
-156 -270 0
-154 -283 0
-155 -284 0
-156 -285 0
-157 -181 0
-158 -182 0
-159 -183 0
-160 -244 0
-161 -245 0
-162 -246 0
-160 -271 0
-161 -272 0
-162 -273 0
-163 -178 0
-164 -179 0
-165 -180 0
-163 -280 0
-164 -281 0
-165 -282 0
-166 -178 0
-167 -179 0
-168 -180 0
-166 -187 0
-167 -188 0
-168 -189 0
-166 -190 0
-167 -191 0
-168 -192 0
-166 -226 0
-167 -227 0
-168 -228 0
-169 -178 0
-170 -179 0
-171 -180 0
-169 -289 0
-170 -290 0
-171 -291 0
-172 -193 0
-173 -194 0
-174 -195 0
-172 -253 0
-173 -254 0
-174 -255 0
-175 -196 0
-176 -197 0
-177 -198 0
-175 -223 0
-176 -224 0
-177 -225 0
-178 -223 0
-179 -224 0
-180 -225 0
-181 -223 0
-182 -224 0
-183 -225 0
-181 -274 0
-182 -275 0
-183 -276 0
-184 -220 0
-185 -221 0
-186 -222 0
-184 -235 0
-185 -236 0
-186 -237 0
-187 -199 0
-188 -200 0
-189 -201 0
-187 -211 0
-188 -212 0
-189 -213 0
-187 -226 0
-188 -227 0
-189 -228 0
-187 -235 0
-188 -236 0
-189 -237 0
-190 -283 0
-191 -284 0
-192 -285 0
-193 -235 0
-194 -236 0
-195 -237 0
-193 -247 0
-194 -248 0
-195 -249 0
-193 -250 0
-194 -251 0
-195 -252 0
-193 -289 0
-194 -290 0
-195 -291 0
-196 -217 0
-197 -218 0
-198 -219 0
-199 -274 0
-200 -275 0
-201 -276 0
-202 -220 0
-203 -221 0
-204 -222 0
-202 -259 0
-203 -260 0
-204 -261 0
-205 -256 0
-206 -257 0
-207 -258 0
-205 -283 0
-206 -284 0
-207 -285 0
-208 -259 0
-209 -260 0
-210 -261 0
-208 -277 0
-209 -278 0
-210 -279 0
-211 -244 0
-212 -245 0
-213 -246 0
-211 -274 0
-212 -275 0
-213 -276 0
-214 -235 0
-215 -236 0
-216 -237 0
-217 -235 0
-218 -236 0
-219 -237 0
-220 -241 0
-221 -242 0
-222 -243 0
-226 -241 0
-227 -242 0
-228 -243 0
-226 -244 0
-227 -245 0
-228 -246 0
-238 -274 0
-239 -275 0
-240 -276 0
-238 -280 0
-239 -281 0
-240 -282 0
-247 -250 0
-248 -251 0
-249 -252 0
-247 -259 0
-248 -260 0
-249 -261 0
-247 -280 0
-248 -281 0
-249 -282 0
-262 -271 0
-263 -272 0
-264 -273 0
-262 -286 0
-263 -287 0
-264 -288 0
-277 -292 0
-278 -293 0
-279 -294 0
-283 -286 0
-284 -287 0
-285 -288 0
